(set-info :source |printed by MathSAT|)
(declare-fun call_Sofar.flby () Bool)
(declare-fun param_e_s1 () Bool)
(declare-fun call_First.First () Int)
(declare-fun call_synapse.ite10 () Int)
(declare-fun call_synapse.dirty_s () Int)
(declare-fun call_excludes3.excludes () Bool)
(declare-fun env () Bool)
(declare-fun call_synapse.ite () Int)
(declare-fun mem_init_s () Int)
(declare-fun call_synapse.garde_s1 () Bool)
(declare-fun call_synapse.garde_s2 () Bool)
(declare-fun call_synapse.ite6 () Int)
(declare-fun call_synapse.ite16 () Int)
(declare-fun param_e_s2 () Bool)
(declare-fun valid_s () Int)
(declare-fun call_synapse.flby () Int)
(declare-fun call_synapse.flby2 () Int)
(declare-fun invalid_s () Int)
(declare-fun call_synapse.garde_s3 () Bool)
(declare-fun call_synapse.ite17 () Int)
(declare-fun call_synapse.ite12 () Int)
(declare-fun call_synapse.ite14 () Int)
(declare-fun call_synapse.ite11 () Int)
(declare-fun param_init_invalid_s () Int)
(declare-fun call_Sofar.Sofar () Bool)
(declare-fun call_synapse.ite9 () Int)
(declare-fun call_synapse.ite13 () Int)
(declare-fun call_synapse.valid_s () Int)
(declare-fun call_synapse.invalid_s () Int)
(declare-fun call_synapse.ite3 () Int)
(declare-fun call_synapse.ite4 () Int)
(declare-fun dirty_s () Int)
(declare-fun call_synapse.ite18 () Int)
(declare-fun call_synapse.mem_init_s () Int)
(declare-fun call_synapse.ite8 () Int)
(declare-fun call_First.flby () Int)
(declare-fun call_synapse.flby4 () Int)
(declare-fun call_synapse.ite5 () Int)
(declare-fun call_synapse.ite15 () Int)
(declare-fun param_e_s3 () Bool)
(declare-fun _OK_ () Bool)
(declare-fun call_synapse.ite2 () Int)
(declare-fun call_synapse.flby3 () Int)
(declare-fun call_synapse.ite7 () Int)
(define-fun .def_593 () Bool (= call_First.flby call_First.First))
(define-fun .def_591 () Bool (= call_Sofar.flby call_Sofar.Sofar))
(define-fun .def_586 () Bool (and param_e_s3 param_e_s2))
(define-fun .def_584 () Bool (and param_e_s3 param_e_s1))
(define-fun .def_583 () Bool (and param_e_s1 param_e_s2))
(define-fun .def_585 () Bool (or .def_583 .def_584))
(define-fun .def_587 () Bool (or .def_585 .def_586))
(define-fun .def_588 () Bool (not .def_587))
(define-fun .def_589 () Bool (= call_excludes3.excludes .def_588))
(define-fun .def_581 () Bool (= call_synapse.flby call_synapse.mem_init_s))
(define-fun .def_579 () Bool (= call_synapse.flby4 call_synapse.dirty_s))
(define-fun .def_577 () Bool (= call_synapse.flby3 call_synapse.valid_s))
(define-fun .def_575 () Bool (= call_synapse.flby2 call_synapse.invalid_s))
(define-fun .def_571 () Bool (= call_synapse.ite16 call_synapse.ite17))
(define-fun .def_572 () Bool (or param_e_s2 .def_571))
(define-fun .def_568 () Bool (= call_synapse.ite14 call_synapse.ite17))
(define-fun .def_559 () Bool (not param_e_s2))
(define-fun .def_569 () Bool (or .def_559 .def_568))
(define-fun .def_565 () Bool (= call_synapse.ite10 call_synapse.ite11))
(define-fun .def_566 () Bool (or param_e_s2 .def_565))
(define-fun .def_562 () Bool (= call_synapse.ite8 call_synapse.ite11))
(define-fun .def_563 () Bool (or .def_559 .def_562))
(define-fun .def_558 () Bool (= call_synapse.ite5 call_synapse.ite2))
(define-fun .def_560 () Bool (or .def_558 .def_559))
(define-fun .def_554 () Bool (= call_synapse.ite4 call_synapse.ite5))
(define-fun .def_556 () Bool (or .def_554 param_e_s2))
(define-fun .def_561 () Bool (and .def_556 .def_560))
(define-fun .def_564 () Bool (and .def_561 .def_563))
(define-fun .def_567 () Bool (and .def_564 .def_566))
(define-fun .def_570 () Bool (and .def_567 .def_569))
(define-fun .def_573 () Bool (and .def_570 .def_572))
(define-fun .def_550 () Bool (= call_synapse.ite18 call_synapse.ite17))
(define-fun .def_551 () Bool (or param_e_s1 .def_550))
(define-fun .def_546 () Bool (= call_synapse.ite13 call_synapse.ite18))
(define-fun .def_533 () Bool (not param_e_s1))
(define-fun .def_547 () Bool (or .def_533 .def_546))
(define-fun .def_542 () Bool (= call_synapse.ite12 call_synapse.ite11))
(define-fun .def_543 () Bool (or param_e_s1 .def_542))
(define-fun .def_538 () Bool (= call_synapse.ite7 call_synapse.ite12))
(define-fun .def_539 () Bool (or .def_533 .def_538))
(define-fun .def_532 () Bool (= call_synapse.ite6 call_synapse.ite))
(define-fun .def_534 () Bool (or .def_532 .def_533))
(define-fun .def_528 () Bool (= call_synapse.ite6 call_synapse.ite5))
(define-fun .def_530 () Bool (or .def_528 param_e_s1))
(define-fun .def_535 () Bool (and .def_530 .def_534))
(define-fun .def_540 () Bool (and .def_535 .def_539))
(define-fun .def_544 () Bool (and .def_540 .def_543))
(define-fun .def_548 () Bool (and .def_544 .def_547))
(define-fun .def_552 () Bool (and .def_548 .def_551))
(define-fun .def_524 () Bool (= env call_Sofar.Sofar))
(define-fun .def_521 () Bool (= call_synapse.mem_init_s mem_init_s))
(define-fun .def_518 () Bool (= dirty_s call_synapse.dirty_s))
(define-fun .def_515 () Bool (= valid_s call_synapse.valid_s))
(define-fun .def_512 () Bool (= invalid_s call_synapse.invalid_s))
(define-fun .def_504 () Int (* (- 1) call_First.First))
(define-fun .def_505 () Int (+ dirty_s .def_504))
(define-fun .def_506 () Int (+ valid_s .def_505))
(define-fun .def_507 () Int (+ invalid_s .def_506))
(define-fun .def_508 () Bool (= .def_507 0))
(define-fun .def_493 () Bool (not env))
(define-fun .def_509 () Bool (or .def_493 .def_508))
(define-fun .def_510 () Bool (= _OK_ .def_509))
(define-fun .def_513 () Bool (and .def_510 .def_512))
(define-fun .def_516 () Bool (and .def_513 .def_515))
(define-fun .def_519 () Bool (and .def_516 .def_518))
(define-fun .def_522 () Bool (and .def_519 .def_521))
(define-fun .def_525 () Bool (and .def_522 .def_524))
(define-fun .def_553 () Bool (and .def_525 .def_552))
(define-fun .def_574 () Bool (and .def_553 .def_573))
(define-fun .def_576 () Bool (and .def_574 .def_575))
(define-fun .def_578 () Bool (and .def_576 .def_577))
(define-fun .def_580 () Bool (and .def_578 .def_579))
(define-fun .def_582 () Bool (and .def_580 .def_581))
(define-fun .def_590 () Bool (and .def_582 .def_589))
(define-fun .def_592 () Bool (and .def_590 .def_591))
(define-fun .def_594 () Bool (and .def_592 .def_593))
(define-fun .def_489 () Bool (= param_init_invalid_s call_First.flby))
(define-fun .def_482 () Bool (<= 0 param_init_invalid_s))
(define-fun .def_484 () Bool (and .def_482 call_excludes3.excludes))
(define-fun .def_486 () Bool (= .def_484 call_Sofar.flby))
(define-fun .def_480 () Bool (= call_synapse.flby4 0))
(define-fun .def_477 () Bool (= call_synapse.flby3 0))
(define-fun .def_474 () Bool (= call_synapse.flby2 call_synapse.mem_init_s))
(define-fun .def_470 () Bool (= param_init_invalid_s call_synapse.flby))
(define-fun .def_464 () Bool (= call_synapse.ite9 0))
(define-fun .def_462 () Bool (not call_synapse.garde_s3))
(define-fun .def_465 () Bool (or .def_462 .def_464))
(define-fun .def_460 () Bool (= call_synapse.ite15 1))
(define-fun .def_463 () Bool (or .def_460 .def_462))
(define-fun .def_466 () Bool (and .def_463 .def_465))
(define-fun .def_456 () Bool (= call_synapse.ite8 0))
(define-fun .def_453 () Bool (not call_synapse.garde_s2))
(define-fun .def_457 () Bool (or .def_453 .def_456))
(define-fun .def_451 () Bool (= call_synapse.ite14 1))
(define-fun .def_454 () Bool (or .def_451 .def_453))
(define-fun .def_458 () Bool (and .def_454 .def_457))
(define-fun .def_447 () Bool (= call_synapse.ite13 0))
(define-fun .def_445 () Bool (not call_synapse.garde_s1))
(define-fun .def_448 () Bool (or .def_445 .def_447))
(define-fun .def_441 () Bool (= call_synapse.ite15 call_synapse.ite16))
(define-fun .def_432 () Bool (not param_e_s3))
(define-fun .def_442 () Bool (or .def_432 .def_441))
(define-fun .def_436 () Bool (= call_synapse.ite3 call_synapse.ite4))
(define-fun .def_437 () Bool (or .def_432 .def_436))
(define-fun .def_430 () Bool (= call_synapse.ite9 call_synapse.ite10))
(define-fun .def_433 () Bool (or .def_430 .def_432))
(define-fun .def_438 () Bool (and .def_433 .def_437))
(define-fun .def_443 () Bool (and .def_438 .def_442))
(define-fun .def_449 () Bool (and .def_443 .def_448))
(define-fun .def_459 () Bool (and .def_449 .def_458))
(define-fun .def_467 () Bool (and .def_459 .def_466))
(define-fun .def_471 () Bool (and .def_467 .def_470))
(define-fun .def_475 () Bool (and .def_471 .def_474))
(define-fun .def_478 () Bool (and .def_475 .def_477))
(define-fun .def_481 () Bool (and .def_478 .def_480))
(define-fun .def_487 () Bool (and .def_481 .def_486))
(define-fun .def_490 () Bool (and .def_487 .def_489))
(define-fun .def_595 () Bool (and .def_490 .def_594))
(assert .def_595)
